p edge 75 1110
e 1 12
e 1 14
e 1 19
e 1 20
e 1 23
e 1 24
e 1 25
e 1 27
e 1 29
e 1 31
e 1 35
e 1 37
e 1 39
e 1 42
e 1 43
e 1 45
e 1 47
e 1 49
e 1 52
e 1 54
e 1 56
e 1 58
e 1 59
e 1 62
e 1 65
e 1 67
e 1 68
e 1 70
e 1 72
e 1 75
e 2 8
e 2 10
e 2 18
e 2 24
e 2 30
e 2 35
e 2 36
e 2 37
e 2 39
e 2 40
e 2 42
e 2 44
e 2 48
e 2 51
e 2 55
e 2 56
e 2 57
e 2 62
e 2 63
e 2 65
e 2 66
e 2 68
e 2 70
e 2 72
e 2 74
e 3 7
e 3 8
e 3 9
e 3 10
e 3 11
e 3 12
e 3 15
e 3 16
e 3 17
e 3 19
e 3 20
e 3 21
e 3 22
e 3 33
e 3 34
e 3 35
e 3 36
e 3 37
e 3 39
e 3 40
e 3 41
e 3 42
e 3 44
e 3 46
e 3 50
e 3 52
e 3 53
e 3 55
e 3 57
e 3 58
e 3 60
e 3 61
e 3 62
e 3 63
e 3 68
e 3 71
e 3 75
e 4 5
e 4 7
e 4 11
e 4 12
e 4 15
e 4 18
e 4 20
e 4 22
e 4 23
e 4 28
e 4 30
e 4 31
e 4 36
e 4 37
e 4 38
e 4 41
e 4 42
e 4 49
e 4 51
e 4 52
e 4 59
e 4 63
e 4 67
e 4 68
e 4 71
e 4 75
e 5 7
e 5 8
e 5 9
e 5 11
e 5 12
e 5 14
e 5 17
e 5 18
e 5 32
e 5 33
e 5 35
e 5 36
e 5 37
e 5 38
e 5 41
e 5 42
e 5 45
e 5 47
e 5 50
e 5 57
e 5 59
e 5 62
e 5 64
e 5 65
e 5 66
e 5 69
e 5 70
e 5 72
e 5 73
e 5 74
e 6 9
e 6 11
e 6 15
e 6 19
e 6 20
e 6 22
e 6 26
e 6 28
e 6 32
e 6 33
e 6 35
e 6 37
e 6 39
e 6 41
e 6 42
e 6 47
e 6 51
e 6 54
e 6 55
e 6 56
e 6 57
e 6 58
e 6 61
e 6 62
e 6 64
e 6 67
e 6 69
e 6 70
e 6 71
e 6 72
e 6 74
e 6 75
e 7 10
e 7 12
e 7 13
e 7 21
e 7 23
e 7 24
e 7 26
e 7 27
e 7 29
e 7 30
e 7 31
e 7 39
e 7 40
e 7 41
e 7 45
e 7 47
e 7 51
e 7 52
e 7 53
e 7 55
e 7 57
e 7 58
e 7 61
e 7 62
e 7 66
e 7 68
e 7 71
e 8 9
e 8 10
e 8 11
e 8 14
e 8 15
e 8 16
e 8 18
e 8 19
e 8 24
e 8 28
e 8 30
e 8 31
e 8 32
e 8 33
e 8 37
e 8 39
e 8 40
e 8 41
e 8 46
e 8 49
e 8 53
e 8 55
e 8 56
e 8 57
e 8 58
e 8 59
e 8 61
e 8 67
e 8 69
e 8 72
e 8 73
e 8 74
e 9 10
e 9 11
e 9 14
e 9 23
e 9 25
e 9 29
e 9 30
e 9 31
e 9 40
e 9 42
e 9 49
e 9 50
e 9 52
e 9 56
e 9 63
e 9 64
e 9 70
e 9 75
e 10 11
e 10 16
e 10 17
e 10 18
e 10 22
e 10 23
e 10 24
e 10 25
e 10 27
e 10 29
e 10 31
e 10 32
e 10 34
e 10 45
e 10 49
e 10 55
e 10 59
e 10 60
e 10 62
e 10 64
e 10 68
e 10 69
e 10 70
e 10 71
e 11 16
e 11 18
e 11 22
e 11 23
e 11 26
e 11 28
e 11 30
e 11 31
e 11 32
e 11 35
e 11 38
e 11 43
e 11 44
e 11 45
e 11 48
e 11 49
e 11 52
e 11 54
e 11 55
e 11 60
e 11 61
e 11 62
e 11 66
e 11 67
e 11 68
e 11 69
e 11 70
e 11 71
e 12 13
e 12 15
e 12 16
e 12 17
e 12 18
e 12 20
e 12 26
e 12 27
e 12 31
e 12 38
e 12 39
e 12 43
e 12 53
e 12 54
e 12 57
e 12 58
e 12 59
e 12 63
e 12 66
e 12 68
e 12 69
e 12 70
e 12 71
e 12 74
e 12 75
e 13 19
e 13 21
e 13 23
e 13 25
e 13 26
e 13 28
e 13 32
e 13 35
e 13 37
e 13 42
e 13 43
e 13 44
e 13 45
e 13 47
e 13 50
e 13 51
e 13 54
e 13 57
e 13 58
e 13 59
e 13 62
e 13 63
e 13 66
e 13 67
e 13 68
e 13 70
e 13 75
e 14 15
e 14 16
e 14 19
e 14 20
e 14 22
e 14 26
e 14 27
e 14 28
e 14 29
e 14 33
e 14 35
e 14 37
e 14 42
e 14 44
e 14 45
e 14 46
e 14 50
e 14 51
e 14 61
e 14 64
e 14 70
e 14 71
e 14 72
e 14 73
e 15 25
e 15 30
e 15 31
e 15 34
e 15 37
e 15 40
e 15 41
e 15 42
e 15 43
e 15 48
e 15 50
e 15 61
e 15 65
e 15 66
e 15 72
e 15 73
e 16 18
e 16 19
e 16 22
e 16 23
e 16 24
e 16 29
e 16 31
e 16 32
e 16 34
e 16 36
e 16 41
e 16 44
e 16 51
e 16 52
e 16 54
e 16 57
e 16 59
e 16 61
e 16 63
e 16 64
e 16 67
e 16 69
e 16 71
e 16 72
e 16 73
e 16 75
e 17 19
e 17 21
e 17 22
e 17 23
e 17 26
e 17 29
e 17 33
e 17 38
e 17 41
e 17 43
e 17 44
e 17 46
e 17 50
e 17 51
e 17 52
e 17 53
e 17 54
e 17 57
e 17 60
e 17 62
e 17 64
e 17 69
e 17 71
e 17 72
e 17 74
e 18 19
e 18 22
e 18 23
e 18 25
e 18 37
e 18 41
e 18 43
e 18 45
e 18 46
e 18 48
e 18 50
e 18 54
e 18 57
e 18 58
e 18 62
e 18 63
e 18 66
e 18 67
e 18 68
e 18 70
e 19 22
e 19 37
e 19 39
e 19 40
e 19 41
e 19 49
e 19 52
e 19 54
e 19 55
e 19 56
e 19 59
e 19 60
e 19 61
e 19 66
e 19 67
e 19 68
e 19 70
e 19 73
e 19 74
e 19 75
e 20 23
e 20 24
e 20 26
e 20 28
e 20 29
e 20 30
e 20 32
e 20 35
e 20 36
e 20 40
e 20 41
e 20 50
e 20 53
e 20 58
e 20 60
e 20 68
e 20 70
e 20 75
e 21 22
e 21 25
e 21 26
e 21 27
e 21 30
e 21 36
e 21 37
e 21 43
e 21 46
e 21 49
e 21 50
e 21 53
e 21 54
e 21 57
e 21 58
e 21 59
e 21 69
e 21 70
e 21 72
e 21 75
e 22 23
e 22 26
e 22 27
e 22 28
e 22 30
e 22 34
e 22 37
e 22 39
e 22 41
e 22 44
e 22 45
e 22 49
e 22 50
e 22 52
e 22 53
e 22 57
e 22 63
e 22 64
e 22 65
e 22 66
e 22 75
e 23 31
e 23 35
e 23 37
e 23 38
e 23 40
e 23 44
e 23 45
e 23 46
e 23 48
e 23 49
e 23 51
e 23 53
e 23 55
e 23 58
e 23 60
e 23 62
e 23 70
e 23 71
e 23 72
e 23 74
e 24 25
e 24 30
e 24 31
e 24 35
e 24 36
e 24 37
e 24 39
e 24 42
e 24 43
e 24 46
e 24 51
e 24 52
e 24 53
e 24 55
e 24 57
e 24 58
e 24 59
e 24 63
e 24 64
e 24 66
e 24 67
e 24 72
e 24 73
e 24 74
e 25 27
e 25 29
e 25 31
e 25 32
e 25 34
e 25 35
e 25 37
e 25 40
e 25 44
e 25 46
e 25 47
e 25 53
e 25 59
e 25 60
e 25 61
e 25 63
e 25 64
e 25 66
e 25 70
e 25 71
e 25 72
e 26 29
e 26 32
e 26 35
e 26 37
e 26 38
e 26 41
e 26 44
e 26 47
e 26 52
e 26 53
e 26 54
e 26 55
e 26 57
e 26 58
e 26 62
e 26 63
e 26 64
e 26 67
e 26 69
e 26 75
e 27 28
e 27 35
e 27 41
e 27 43
e 27 44
e 27 46
e 27 47
e 27 51
e 27 55
e 27 56
e 27 59
e 27 61
e 27 63
e 27 67
e 27 68
e 27 72
e 27 74
e 28 32
e 28 33
e 28 34
e 28 38
e 28 39
e 28 41
e 28 42
e 28 43
e 28 44
e 28 52
e 28 54
e 28 55
e 28 56
e 28 65
e 28 69
e 28 70
e 28 72
e 28 73
e 28 75
e 29 30
e 29 33
e 29 35
e 29 37
e 29 38
e 29 39
e 29 41
e 29 42
e 29 44
e 29 45
e 29 46
e 29 49
e 29 57
e 29 60
e 29 61
e 29 63
e 29 65
e 29 66
e 29 67
e 29 70
e 29 72
e 29 73
e 30 32
e 30 33
e 30 35
e 30 37
e 30 38
e 30 40
e 30 43
e 30 44
e 30 45
e 30 48
e 30 50
e 30 51
e 30 54
e 30 57
e 30 58
e 30 59
e 30 65
e 30 67
e 30 69
e 30 71
e 31 37
e 31 40
e 31 47
e 31 55
e 31 56
e 31 58
e 31 60
e 31 61
e 31 62
e 31 65
e 31 70
e 31 71
e 31 73
e 32 33
e 32 35
e 32 36
e 32 42
e 32 45
e 32 46
e 32 54
e 32 56
e 32 62
e 32 63
e 32 67
e 32 68
e 32 70
e 32 73
e 33 34
e 33 36
e 33 37
e 33 40
e 33 44
e 33 45
e 33 55
e 33 60
e 33 64
e 33 65
e 33 66
e 33 67
e 33 68
e 33 75
e 34 37
e 34 41
e 34 42
e 34 43
e 34 47
e 34 48
e 34 50
e 34 51
e 34 52
e 34 54
e 34 56
e 34 58
e 34 60
e 34 64
e 34 67
e 34 68
e 34 69
e 34 70
e 34 73
e 34 75
e 35 37
e 35 39
e 35 41
e 35 42
e 35 44
e 35 45
e 35 49
e 35 53
e 35 54
e 35 63
e 35 66
e 35 68
e 35 70
e 35 71
e 35 72
e 35 73
e 36 37
e 36 38
e 36 42
e 36 44
e 36 46
e 36 49
e 36 50
e 36 56
e 36 67
e 36 68
e 36 70
e 36 71
e 37 38
e 37 40
e 37 43
e 37 49
e 37 53
e 37 55
e 37 56
e 37 63
e 37 65
e 37 66
e 37 70
e 37 72
e 37 74
e 38 45
e 38 47
e 38 51
e 38 52
e 38 54
e 38 55
e 38 59
e 38 62
e 38 64
e 38 66
e 38 68
e 38 69
e 38 71
e 39 40
e 39 41
e 39 42
e 39 45
e 39 46
e 39 50
e 39 55
e 39 56
e 39 58
e 39 59
e 39 64
e 39 66
e 39 73
e 39 75
e 40 41
e 40 44
e 40 45
e 40 46
e 40 50
e 40 52
e 40 53
e 40 54
e 40 56
e 40 57
e 40 58
e 40 64
e 40 65
e 40 66
e 40 70
e 40 71
e 40 75
e 41 45
e 41 50
e 41 56
e 41 58
e 41 61
e 41 62
e 41 63
e 41 64
e 41 65
e 41 67
e 41 69
e 41 71
e 42 44
e 42 45
e 42 46
e 42 49
e 42 50
e 42 51
e 42 52
e 42 55
e 42 62
e 42 63
e 42 68
e 42 71
e 42 72
e 42 74
e 43 46
e 43 47
e 43 56
e 43 60
e 43 64
e 43 66
e 43 67
e 43 68
e 43 70
e 43 75
e 44 45
e 44 49
e 44 50
e 44 51
e 44 53
e 44 55
e 44 56
e 44 57
e 44 59
e 44 60
e 44 61
e 44 63
e 44 64
e 44 65
e 44 73
e 45 47
e 45 48
e 45 53
e 45 56
e 45 57
e 45 60
e 45 62
e 45 67
e 45 70
e 45 72
e 45 73
e 45 74
e 46 48
e 46 51
e 46 53
e 46 54
e 46 56
e 46 57
e 46 58
e 46 60
e 46 67
e 46 72
e 46 73
e 46 75
e 47 51
e 47 53
e 47 54
e 47 55
e 47 61
e 47 65
e 47 71
e 47 72
e 47 75
e 48 49
e 48 50
e 48 52
e 48 55
e 48 58
e 48 61
e 48 69
e 48 74
e 48 75
e 49 52
e 49 54
e 49 55
e 49 57
e 49 60
e 49 62
e 49 66
e 49 69
e 49 70
e 49 72
e 49 73
e 50 51
e 50 52
e 50 53
e 50 56
e 50 58
e 50 63
e 50 67
e 50 73
e 50 75
e 51 52
e 51 53
e 51 57
e 51 58
e 51 59
e 51 61
e 51 66
e 51 68
e 51 69
e 51 74
e 52 54
e 52 56
e 52 57
e 52 59
e 52 61
e 52 64
e 52 67
e 52 68
e 52 69
e 52 75
e 53 54
e 53 55
e 53 56
e 53 57
e 53 58
e 53 62
e 53 64
e 53 66
e 53 67
e 53 70
e 53 71
e 53 73
e 53 75
e 54 55
e 54 56
e 54 61
e 54 62
e 54 64
e 54 65
e 54 68
e 54 69
e 55 56
e 55 57
e 55 58
e 55 66
e 55 67
e 55 70
e 55 71
e 55 72
e 55 75
e 56 58
e 56 59
e 56 60
e 56 63
e 56 65
e 56 66
e 56 68
e 56 71
e 56 72
e 56 74
e 56 75
e 57 58
e 57 59
e 57 67
e 57 68
e 57 69
e 57 71
e 57 73
e 58 59
e 58 60
e 58 62
e 58 63
e 58 66
e 58 67
e 58 70
e 58 72
e 58 73
e 58 74
e 58 75
e 59 64
e 59 66
e 59 71
e 59 75
e 60 62
e 60 63
e 60 68
e 60 69
e 60 73
e 60 74
e 61 63
e 61 65
e 61 69
e 61 70
e 61 71
e 61 72
e 61 73
e 62 66
e 62 68
e 62 71
e 62 72
e 62 73
e 62 75
e 63 66
e 63 67
e 63 68
e 63 71
e 63 73
e 64 65
e 64 66
e 64 69
e 64 72
e 65 66
e 65 70
e 65 71
e 65 74
e 65 75
e 66 68
e 66 70
e 66 71
e 66 74
e 67 69
e 67 70
e 68 70
e 68 71
e 69 70
e 69 73
e 69 74
e 69 75
e 70 71
e 70 74
e 71 72
e 71 74
e 71 75
e 72 74
e 72 75
e 73 74
e 73 75
